data;

param num_top:=5;

#nodes and edges of the physical network
param n := 10;

set E := (1,2) (1,3) (1,7) (2,4) (2,7) (3,5) (4,8) (5,6) (5,7) (6,7) (6,9) (7,8) (7,9) (8,10) (9,10) ;

#nodes and edges of the virtual networks
set Nl[1] := 1 4 9 10 3 ;
set Nl[2] := 2 7 8 10 4 ;
set Nl[3] := 2 3 8 5 7 ;
set Nl[4] := 4 5 7 2 6 ;
set Nl[5] := 5 4 9 8 6 ;

set El[1] := (1,4) (4,9) (9,10) (3,10) (1,3) (4,10) (1,9) (1,10) (3,4) (3,9) ;
set El[2] := (2,7) (7,8) (8,10) (4,10) (2,4) (4,8) (7,10) (2,10) (4,7) (2,8) ;
set El[3] := (2,3) (3,8) (5,8) (5,7) (2,7) (3,7) (2,8) (2,5) (3,5) (7,8) ;
set El[4] := (4,5) (5,7) (2,7) (2,6) (4,6) (4,7) (2,4) (2,5) (6,7) (5,6) ;
set El[5] := (4,5) (4,9) (8,9) (6,8) (5,6) (4,8) (5,8) (5,9) (6,9) (4,6) ;
